Instance: E051-05e.dat
Class:  3
   50 --- number of customers (no depot)
   11 --- number of vehicles
  103 --- number of items
Capacity - height - width of vehicles
   160     40     20
Node - x - y - demand
    0    30.0    40.0     0.0
    1    37.0    52.0     7.0
    2    49.0    49.0    30.0
    3    52.0    64.0    16.0
    4    20.0    26.0     9.0
    5    40.0    30.0    21.0
    6    21.0    47.0    15.0
    7    17.0    63.0    19.0
    8    31.0    62.0    23.0
    9    52.0    33.0    11.0
   10    51.0    21.0     5.0
   11    42.0    41.0    19.0
   12    31.0    32.0    29.0
   13     5.0    25.0    23.0
   14    12.0    42.0    21.0
   15    36.0    16.0    10.0
   16    52.0    41.0    15.0
   17    27.0    23.0     3.0
   18    17.0    33.0    41.0
   19    13.0    13.0     9.0
   20    57.0    58.0    28.0
   21    62.0    42.0     8.0
   22    42.0    57.0     8.0
   23    16.0    57.0    16.0
   24     8.0    52.0    10.0
   25     7.0    38.0    28.0
   26    27.0    68.0     7.0
   27    30.0    48.0    15.0
   28    43.0    67.0    14.0
   29    58.0    48.0     6.0
   30    58.0    27.0    19.0
   31    37.0    69.0    11.0
   32    38.0    46.0    12.0
   33    46.0    10.0    23.0
   34    61.0    33.0    26.0
   35    62.0    63.0    17.0
   36    63.0    69.0     6.0
   37    32.0    22.0     9.0
   38    45.0    35.0    15.0
   39    59.0    15.0    14.0
   40     5.0     6.0     7.0
   41    10.0    17.0    27.0
   42    21.0    10.0    13.0
   43     5.0    64.0    11.0
   44    30.0    15.0    16.0
   45    39.0    10.0    10.0
   46    32.0    39.0     5.0
   47    25.0    32.0    25.0
   48    25.0    55.0    17.0
   49    48.0    28.0    18.0
   50    56.0    37.0    10.0
Node - number of items - h - w for each item
    0   0
    1   1   23    3
    2   3    9    7   15    4   15    3
    3   3    6   12   13    6   29    2
    4   2   14    5   13    2
    5   3   16    7   11    7   27    2
    6   3    7   11   12    4   12    3
    7   1    8   13
    8   1   27    4
    9   1    5   16
   10   2   13    5   10    5
   11   1    5    9
   12   3    7    7   22    3   20    3
   13   1   20    3
   14   3    8   13    7   13   29    4
   15   3    8   13    6   11    9    6
   16   2    7   14   14    3
   17   1   29    2
   18   2   15    6    8    6
   19   1   16    5
   20   3   14    6   17    4   20    3
   21   2    7   13    4   11
   22   3   14    6   30    3   25    3
   23   3    8   14    7    7   12    5
   24   1    6   10
   25   1    6   12
   26   3   15    6    8    5   31    3
   27   2    6   12    5    8
   28   2    6   10   28    3
   29   2    4   13   28    3
   30   2    5   10   12    3
   31   2    4    6   18    3
   32   2   12    5   14    3
   33   2    7   15   13    4
   34   1    7    7
   35   2    4   15    8   13
   36   2   11    5   10    5
   37   3    7   12   14    7   23    4
   38   1   18    4
   39   1    6    7
   40   2    6    8   22    2
   41   3    7   12   12    7   22    3
   42   3    8   15    6   15   28    3
   43   3    5   13    9    6   16    2
   44   3    6   14    7   11    5    8
   45   3    7   15    7   13   21    4
   46   1   14    7
   47   1   24    3
   48   1   15    7
   49   3    6   14   13    6   18    4
   50   3    7   15   12    7    5    7
